row=10;
column=10;
Board=[|0,4,0,5,0,0,0,0,0,0|0,0,0,0,0,0,0,0,0,0|0,0,0,0,0,0,0,0,0,0|0,1,0,0,0,0,3,0,3,0|0,0,0,0,0,0,0,0,0,0|0,0,0,0,0,0,0,0,0,0|0,6,0,0,0,0,0,0,0,0|0,0,0,0,0,0,0,0,0,0|0,0,0,0,0,0,0,0,0,1|0,0,0,1,0,0,1,0,0,0|];
right = [3,1,2,4,1,1,3,1,2,2];
bottom = [0,6,1,3,3,0,3,0,3,1];
